NAME: instance_1626
TYPE: TSP
DIMENSION: 20
EDGE_WEIGHT_TYPE: EUC_2D
NODE_COORD_SECTION
0 63.03 12.09
1 21.10 36.21
2 29.99 27.49
3 17.82 50.34
4 29.82 33.66
5 85.88 0.92
6 73.54 33.90
7 15.64 7.11
8 81.67 18.65
9 71.96 88.64
10 25.89 92.67
11 51.53 95.24
12 0.00 62.90
13 6.43 49.91
14 36.97 17.55
15 2.52 95.05
16 75.79 71.39
17 93.94 66.23
18 29.50 14.41
19 77.22 71.44
EOF
